NAME : RD399C
TYPE : PDTSP
DIMENSION : 399
EDGE_WEIGHT_TYPE : EUC_2D
NODE_COORD_SECTION
1 440 590
2 600 800
3 860 950
4 440 550
5 800 800
6 89 840
7 230 850
8 480 200
9 410 600
10 950 790
11 590 970
12 950 430
13 83 600
14 860 750
15 250 700
16 960 970
17 130 540
18 560 21
19 55 620
20 690 580
21 240 710
22 580 610
23 400 940
24 16 610
25 20 63
26 200 610
27 910 430
28 830 580
29 50 41
30 270 740
31 980 720
32 490 960
33 820 280
34 330 470
35 280 950
36 170 970
37 810 540
38 450 310
39 310 550
40 560 360
41 160 180
42 140 700
43 960 440
44 460 260
45 390 490
46 930 200
47 280 900
48 330 920
49 34 890
50 510 60
51 230 330
52 870 750
53 130 27
54 26 380
55 550 320
56 420 670
57 700 640
58 31 880
59 490 990
60 550 870
61 760 230
62 490 890
63 910 480
64 200 820
65 170 110
66 600 590
67 130 510
68 330 870
69 270 790
70 790 140
71 160 190
72 190 900
73 750 820
74 670 140
75 800 500
76 300 800
77 92 380
78 920 110
79 370 270
80 790 740
81 800 160
82 750 540
83 490 89
84 150 95
85 230 10
86 970 220
87 41 260
88 190 290
89 24 510
90 320 310
91 490 160
92 530 680
93 840 880
94 780 180
95 110 27
96 650 670
97 630 200
98 1.900000 710
99 730 450
100 580 930
101 380 860
102 260 250
103 660 690
104 700 440
105 800 330
106 760 580
107 170 770
108 610 670
109 570 360
110 510 800
111 690 480
112 620 420
113 430 850
114 230 150
115 330 620
116 760 1000
117 180 550
118 210 750
119 130 990
120 250 600
121 370 320
122 620 810
123 280 910
124 350 930
125 940 730
126 920 410
127 150 230
128 480 250
129 230 590
130 440 820
131 960 380
132 660 990
133 480 420
134 730 76
135 840 860
136 10 830
137 360 690
138 900 210
139 610 780
140 680 85
141 840 760
142 450 880
143 730 400
144 880 150
145 430 230
146 980 820
147 580 550
148 540 820
149 510 160
150 880 250
151 100 820
152 490 5.500000
153 130 230
154 160 450
155 270 69
156 480 710
157 460 810
158 220 20
159 170 810
160 380 460
161 310 220
162 2.200000 26
163 140 580
164 260 330
165 680 550
166 180 610
167 560 330
168 420 520
169 850 420
170 850 320
171 750 57
172 100 590
173 64 87
174 420 190
175 880 560
176 870 180
177 260 430
178 670 660
179 420 34
180 420 240
181 620 4.800000
182 970 240
183 180 960
184 150 250
185 140 540
186 24 240
187 700 43
188 950 790
189 190 9.800000
190 350 1000
191 330 8.800000
192 550 200
193 780 290
194 760 920
195 170 770
196 86 34
197 900 130
198 88 390
199 22 100
200 420 580
201 210 480
202 490 630
203 370 78
204 120 480
205 300 920
206 880 970
207 890 110
208 640 850
209 380 96
210 130 420
211 760 810
212 45 940
213 240 470
214 640 590
215 230 540
216 650 37
217 880 440
218 680 160
219 810 470
220 960 580
221 310 610
222 850 620
223 520 990
224 270 200
225 760 750
226 650 600
227 780 740
228 400 190
229 32 940
230 810 440
231 290 290
232 610 14
233 93 430
234 770 180
235 180 410
236 340 390
237 230 340
238 490 330
239 26 670
240 790 180
241 980 740
242 58 210
243 200 300
244 540 1000
245 560 380
246 260 610
247 810 370
248 460 420
249 820 630
250 420 820
251 200 280
252 330 910
253 510 910
254 830 800
255 370 490
256 600 620
257 330 380
258 360 180
259 810 760
260 260 210
261 930 690
262 180 370
263 610 360
264 670 810
265 850 820
266 750 56
267 94 530
268 820 610
269 750 490
270 230 960
271 680 930
272 430 690
273 710 560
274 450 660
275 380 810
276 890 4.900000
277 53 270
278 150 950
279 810 760
280 780 780
281 180 520
282 990 260
283 110 380
284 240 490
285 310 440
286 270 170
287 50 740
288 6.400000 350
289 540 530
290 790 430
291 1000 78
292 510 830
293 890 310
294 300 540
295 470 22
296 870 480
297 92 660
298 620 750
299 410 750
300 240 680
301 970 170
302 730 320
303 330 590
304 560 14
305 33 550
306 450 800
307 200 2
308 240 400
309 750 360
310 430 820
311 22 260
312 340 230
313 750 930
314 260 180
315 230 790
316 110 560
317 820 390
318 440 140
319 340 840
320 920 460
321 950 34
322 120 910
323 830 230
324 970 170
325 760 560
326 480 830
327 190 620
328 500 890
329 810 880
330 6.100000 120
331 680 980
332 750 170
333 740 360
334 490 200
335 230 560
336 780 690
337 560 170
338 460 710
339 100 190
340 260 810
341 43 930
342 170 170
343 480 810
344 540 890
345 3 970
346 290 440
347 34 280
348 380 230
349 410 860
350 960 26
351 530 450
352 890 770
353 610 710
354 800 370
355 6.600000 200
356 120 440
357 520 650
358 240 41
359 600 720
360 910 950
361 500 930
362 550 950
363 780 99
364 580 76
365 210 82
366 560 620
367 690 560
368 90 17
369 760 410
370 630 530
371 1000 230
372 920 880
373 990 47
374 380 310
375 960 410
376 830 710
377 830 580
378 36 990
379 620 280
380 110 120
381 740 820
382 270 260
383 83 640
384 590 760
385 720 470
386 780 900
387 890 670
388 27 160
389 740 970
390 170 710
391 260 130
392 930 900
393 520 54
394 72 420
395 370 860
396 350 800
397 130 43
398 590 140
399 23 360
PICKUP_AND_DELIVERY_SECTION
1 0 0 0 0 0 0
2 0 0 0 0 0 362
3 0 0 0 0 0 323
4 0 0 0 0 0 218
5 0 0 0 0 155 0
6 0 0 0 0 207 0
7 0 0 0 0 0 106
8 0 0 0 0 0 363
9 0 0 0 0 0 41
10 0 0 0 0 0 331
11 0 0 0 0 96 0
12 0 0 0 0 163 0
13 0 0 0 0 0 94
14 0 0 0 0 152 0
15 0 0 0 0 0 213
16 0 0 0 0 164 0
17 0 0 0 0 76 0
18 0 0 0 0 390 0
19 0 0 0 0 0 224
20 0 0 0 0 251 0
21 0 0 0 0 228 0
22 0 0 0 0 0 117
23 0 0 0 0 0 184
24 0 0 0 0 179 0
25 0 0 0 0 0 49
26 0 0 0 0 0 322
27 0 0 0 0 0 68
28 0 0 0 0 0 393
29 0 0 0 0 246 0
30 0 0 0 0 136 0
31 0 0 0 0 297 0
32 0 0 0 0 226 0
33 0 0 0 0 0 282
34 0 0 0 0 166 0
35 0 0 0 0 277 0
36 0 0 0 0 158 0
37 0 0 0 0 104 0
38 0 0 0 0 74 0
39 0 0 0 0 0 45
40 0 0 0 0 0 168
41 0 0 0 0 9 0
42 0 0 0 0 0 278
43 0 0 0 0 0 153
44 0 0 0 0 259 0
45 0 0 0 0 39 0
46 0 0 0 0 369 0
47 0 0 0 0 186 0
48 0 0 0 0 0 372
49 0 0 0 0 25 0
50 0 0 0 0 130 0
51 0 0 0 0 0 85
52 0 0 0 0 0 127
53 0 0 0 0 399 0
54 0 0 0 0 0 283
55 0 0 0 0 59 0
56 0 0 0 0 0 79
57 0 0 0 0 173 0
58 0 0 0 0 0 381
59 0 0 0 0 0 55
60 0 0 0 0 0 285
61 0 0 0 0 247 0
62 0 0 0 0 0 129
63 0 0 0 0 238 0
64 0 0 0 0 0 295
65 0 0 0 0 384 0
66 0 0 0 0 0 377
67 0 0 0 0 95 0
68 0 0 0 0 27 0
69 0 0 0 0 98 0
70 0 0 0 0 0 265
71 0 0 0 0 0 308
72 0 0 0 0 101 0
73 0 0 0 0 0 199
74 0 0 0 0 0 38
75 0 0 0 0 257 0
76 0 0 0 0 0 17
77 0 0 0 0 0 235
78 0 0 0 0 0 190
79 0 0 0 0 56 0
80 0 0 0 0 336 0
81 0 0 0 0 167 0
82 0 0 0 0 262 0
83 0 0 0 0 0 268
84 0 0 0 0 171 0
85 0 0 0 0 51 0
86 0 0 0 0 124 0
87 0 0 0 0 0 379
88 0 0 0 0 347 0
89 0 0 0 0 140 0
90 0 0 0 0 0 234
91 0 0 0 0 0 151
92 0 0 0 0 342 0
93 0 0 0 0 0 376
94 0 0 0 0 13 0
95 0 0 0 0 0 67
96 0 0 0 0 0 11
97 0 0 0 0 174 0
98 0 0 0 0 0 69
99 0 0 0 0 0 109
100 0 0 0 0 197 0
101 0 0 0 0 0 72
102 0 0 0 0 230 0
103 0 0 0 0 0 326
104 0 0 0 0 0 37
105 0 0 0 0 149 0
106 0 0 0 0 7 0
107 0 0 0 0 0 301
108 0 0 0 0 189 0
109 0 0 0 0 99 0
110 0 0 0 0 275 0
111 0 0 0 0 288 0
112 0 0 0 0 0 198
113 0 0 0 0 203 0
114 0 0 0 0 0 185
115 0 0 0 0 0 279
116 0 0 0 0 182 0
117 0 0 0 0 22 0
118 0 0 0 0 123 0
119 0 0 0 0 0 145
120 0 0 0 0 254 0
121 0 0 0 0 241 0
122 0 0 0 0 368 0
123 0 0 0 0 0 118
124 0 0 0 0 0 86
125 0 0 0 0 0 165
126 0 0 0 0 0 309
127 0 0 0 0 52 0
128 0 0 0 0 271 0
129 0 0 0 0 62 0
130 0 0 0 0 0 50
131 0 0 0 0 227 0
132 0 0 0 0 0 314
133 0 0 0 0 0 388
134 0 0 0 0 193 0
135 0 0 0 0 0 225
136 0 0 0 0 0 30
137 0 0 0 0 0 304
138 0 0 0 0 0 258
139 0 0 0 0 0 313
140 0 0 0 0 0 89
141 0 0 0 0 175 0
142 0 0 0 0 156 0
143 0 0 0 0 349 0
144 0 0 0 0 0 148
145 0 0 0 0 119 0
146 0 0 0 0 290 0
147 0 0 0 0 0 395
148 0 0 0 0 144 0
149 0 0 0 0 0 105
150 0 0 0 0 0 221
151 0 0 0 0 91 0
152 0 0 0 0 0 14
153 0 0 0 0 43 0
154 0 0 0 0 157 0
155 0 0 0 0 0 5
156 0 0 0 0 0 142
157 0 0 0 0 0 154
158 0 0 0 0 0 36
159 0 0 0 0 0 299
160 0 0 0 0 0 162
161 0 0 0 0 398 0
162 0 0 0 0 160 0
163 0 0 0 0 0 12
164 0 0 0 0 0 16
165 0 0 0 0 125 0
166 0 0 0 0 0 34
167 0 0 0 0 0 81
168 0 0 0 0 40 0
169 0 0 0 0 343 0
170 0 0 0 0 284 0
171 0 0 0 0 0 84
172 0 0 0 0 0 334
173 0 0 0 0 0 57
174 0 0 0 0 0 97
175 0 0 0 0 0 141
176 0 0 0 0 0 317
177 0 0 0 0 0 316
178 0 0 0 0 0 391
179 0 0 0 0 0 24
180 0 0 0 0 0 303
181 0 0 0 0 0 253
182 0 0 0 0 0 116
183 0 0 0 0 330 0
184 0 0 0 0 23 0
185 0 0 0 0 114 0
186 0 0 0 0 0 47
187 0 0 0 0 293 0
188 0 0 0 0 0 350
189 0 0 0 0 0 108
190 0 0 0 0 78 0
191 0 0 0 0 0 341
192 0 0 0 0 292 0
193 0 0 0 0 0 134
194 0 0 0 0 382 0
195 0 0 0 0 324 0
196 0 0 0 0 0 237
197 0 0 0 0 0 100
198 0 0 0 0 112 0
199 0 0 0 0 73 0
200 0 0 0 0 0 315
201 0 0 0 0 261 0
202 0 0 0 0 289 0
203 0 0 0 0 0 113
204 0 0 0 0 0 370
205 0 0 0 0 0 287
206 0 0 0 0 0 260
207 0 0 0 0 0 6
208 0 0 0 0 298 0
209 0 0 0 0 0 280
210 0 0 0 0 319 0
211 0 0 0 0 305 0
212 0 0 0 0 0 348
213 0 0 0 0 15 0
214 0 0 0 0 333 0
215 0 0 0 0 360 0
216 0 0 0 0 394 0
217 0 0 0 0 300 0
218 0 0 0 0 4 0
219 0 0 0 0 386 0
220 0 0 0 0 0 346
221 0 0 0 0 150 0
222 0 0 0 0 291 0
223 0 0 0 0 0 345
224 0 0 0 0 19 0
225 0 0 0 0 135 0
226 0 0 0 0 0 32
227 0 0 0 0 0 131
228 0 0 0 0 0 21
229 0 0 0 0 248 0
230 0 0 0 0 0 102
231 0 0 0 0 378 0
232 0 0 0 0 0 340
233 0 0 0 0 0 264
234 0 0 0 0 90 0
235 0 0 0 0 77 0
236 0 0 0 0 0 318
237 0 0 0 0 196 0
238 0 0 0 0 0 63
239 0 0 0 0 242 0
240 0 0 0 0 0 263
241 0 0 0 0 0 121
242 0 0 0 0 0 239
243 0 0 0 0 0 380
244 0 0 0 0 385 0
245 0 0 0 0 361 0
246 0 0 0 0 0 29
247 0 0 0 0 0 61
248 0 0 0 0 0 229
249 0 0 0 0 307 0
250 0 0 0 0 0 352
251 0 0 0 0 0 20
252 0 0 0 0 358 0
253 0 0 0 0 181 0
254 0 0 0 0 0 120
255 0 0 0 0 0 365
256 0 0 0 0 0 374
257 0 0 0 0 0 75
258 0 0 0 0 138 0
259 0 0 0 0 0 44
260 0 0 0 0 206 0
261 0 0 0 0 0 201
262 0 0 0 0 0 82
263 0 0 0 0 240 0
264 0 0 0 0 233 0
265 0 0 0 0 70 0
266 0 0 0 0 320 0
267 0 0 0 0 0 397
268 0 0 0 0 83 0
269 0 0 0 0 296 0
270 0 0 0 0 0 302
271 0 0 0 0 0 128
272 0 0 0 0 359 0
273 0 0 0 0 338 0
274 0 0 0 0 335 0
275 0 0 0 0 0 110
276 0 0 0 0 367 0
277 0 0 0 0 0 35
278 0 0 0 0 42 0
279 0 0 0 0 115 0
280 0 0 0 0 209 0
281 0 0 0 0 0 356
282 0 0 0 0 33 0
283 0 0 0 0 54 0
284 0 0 0 0 0 170
285 0 0 0 0 60 0
286 0 0 0 0 0 396
287 0 0 0 0 205 0
288 0 0 0 0 0 111
289 0 0 0 0 0 202
290 0 0 0 0 0 146
291 0 0 0 0 0 222
292 0 0 0 0 0 192
293 0 0 0 0 0 187
294 0 0 0 0 0 321
295 0 0 0 0 64 0
296 0 0 0 0 0 269
297 0 0 0 0 0 31
298 0 0 0 0 0 208
299 0 0 0 0 159 0
300 0 0 0 0 0 217
301 0 0 0 0 107 0
302 0 0 0 0 270 0
303 0 0 0 0 180 0
304 0 0 0 0 137 0
305 0 0 0 0 0 211
306 0 0 0 0 371 0
307 0 0 0 0 0 249
308 0 0 0 0 71 0
309 0 0 0 0 126 0
310 0 0 0 0 0 325
311 0 0 0 0 387 0
312 0 0 0 0 373 0
313 0 0 0 0 139 0
314 0 0 0 0 132 0
315 0 0 0 0 200 0
316 0 0 0 0 177 0
317 0 0 0 0 176 0
318 0 0 0 0 236 0
319 0 0 0 0 0 210
320 0 0 0 0 0 266
321 0 0 0 0 294 0
322 0 0 0 0 26 0
323 0 0 0 0 3 0
324 0 0 0 0 0 195
325 0 0 0 0 310 0
326 0 0 0 0 103 0
327 0 0 0 0 0 357
328 0 0 0 0 392 0
329 0 0 0 0 0 355
330 0 0 0 0 0 183
331 0 0 0 0 10 0
332 0 0 0 0 339 0
333 0 0 0 0 0 214
334 0 0 0 0 172 0
335 0 0 0 0 0 274
336 0 0 0 0 0 80
337 0 0 0 0 0 351
338 0 0 0 0 0 273
339 0 0 0 0 0 332
340 0 0 0 0 232 0
341 0 0 0 0 191 0
342 0 0 0 0 0 92
343 0 0 0 0 0 169
344 0 0 0 0 353 0
345 0 0 0 0 223 0
346 0 0 0 0 220 0
347 0 0 0 0 0 88
348 0 0 0 0 212 0
349 0 0 0 0 0 143
350 0 0 0 0 188 0
351 0 0 0 0 337 0
352 0 0 0 0 250 0
353 0 0 0 0 0 344
354 0 0 0 0 0 364
355 0 0 0 0 329 0
356 0 0 0 0 281 0
357 0 0 0 0 327 0
358 0 0 0 0 0 252
359 0 0 0 0 0 272
360 0 0 0 0 0 215
361 0 0 0 0 0 245
362 0 0 0 0 2 0
363 0 0 0 0 8 0
364 0 0 0 0 354 0
365 0 0 0 0 255 0
366 0 0 0 0 0 375
367 0 0 0 0 0 276
368 0 0 0 0 0 122
369 0 0 0 0 0 46
370 0 0 0 0 204 0
371 0 0 0 0 0 306
372 0 0 0 0 48 0
373 0 0 0 0 0 312
374 0 0 0 0 256 0
375 0 0 0 0 366 0
376 0 0 0 0 93 0
377 0 0 0 0 66 0
378 0 0 0 0 0 231
379 0 0 0 0 87 0
380 0 0 0 0 243 0
381 0 0 0 0 58 0
382 0 0 0 0 0 194
383 0 0 0 0 0 389
384 0 0 0 0 0 65
385 0 0 0 0 0 244
386 0 0 0 0 0 219
387 0 0 0 0 0 311
388 0 0 0 0 133 0
389 0 0 0 0 383 0
390 0 0 0 0 0 18
391 0 0 0 0 178 0
392 0 0 0 0 0 328
393 0 0 0 0 28 0
394 0 0 0 0 0 216
395 0 0 0 0 147 0
396 0 0 0 0 286 0
397 0 0 0 0 267 0
398 0 0 0 0 0 161
399 0 0 0 0 0 53
DEPOT_SECTION
1 
-1
EOF
